certificates/rado_a12_c248_N29.drat
19 22 -29 0
-28 -29 0
-20 -29 0
d -20 -21 -29 0
-29 0
21 -20 0
-19 -21 0
d -1 -19 -21 0
-21 -22 0
d -21 -5 -22 0
-20 0
12 0
28 0
21 0
-22 0
-17 0
-25 0
-24 0
-8 0
-16 0
-19 0
6 0
4 0
13 0
14 0
1 0
0
